p cnf 112 387
3 1 0
3 -2 0
-1 2 -3 0
-5 3 0
-5 -4 0
-3 4 5 0
7 -2 0
7 -4 0
2 4 -7 0
9 -7 0
9 8 0
7 -8 -9 0
-10 6 0
-10 -9 0
-6 9 10 0
-11 4 0
-11 10 0
-4 -10 11 0
12 6 0
12 2 0
-6 -2 -12 0
-11 -12 -13 0
11 12 -13 0
-11 12 13 0
11 -12 13 0
14 -5 0
14 -13 0
5 13 -14 0
-15 16 -17 0
15 -16 -17 0
-15 -16 17 0
15 16 17 0
18 -17 0
18 4 0
17 -4 -18 0
-20 19 0
-20 4 0
-19 -4 20 0
22 20 0
22 -21 0
-20 21 -22 0
-10 -17 -23 0
10 17 -23 0
-10 17 23 0
10 -17 23 0
-22 -23 -24 0
22 23 -24 0
-22 23 24 0
22 -23 24 0
25 18 0
25 -24 0
-18 24 -25 0
26 14 0
26 -25 0
-14 25 -26 0
-27 19 0
-27 -4 0
-19 4 27 0
29 27 0
29 28 0
-27 -28 -29 0
-26 -29 -30 0
26 29 -30 0
-26 29 30 0
26 -29 30 0
-20 31 0
20 31 0
32 -3 0
32 16 0
3 -16 -32 0
33 -15 0
33 15 0
-35 -16 0
-35 34 0
16 -34 35 0
36 33 0
36 -35 0
-33 35 -36 0
-37 -32 0
-37 36 0
32 -36 37 0
-31 -37 -38 0
31 37 -38 0
-31 37 38 0
31 -37 38 0
4 -6 -40 0
-4 6 -40 0
4 6 40 0
-4 -6 40 0
-39 -40 -41 0
39 40 -41 0
-39 40 41 0
39 -40 41 0
-21 41 -42 0
21 -41 -42 0
-21 -41 42 0
21 41 42 0
43 19 0
43 -21 0
-19 21 -43 0
-1 -43 -44 0
1 43 -44 0
-1 43 44 0
1 -43 44 0
45 44 0
45 15 0
-44 -15 -45 0
46 42 0
46 45 0
-42 -45 -46 0
-47 -39 0
-47 -4 0
39 4 47 0
48 -46 0
48 -47 0
46 47 -48 0
-49 -38 0
-49 -48 0
38 48 49 0
-50 11 0
-50 -4 0
-11 4 50 0
51 -21 0
51 6 0
21 -6 -51 0
52 1 0
52 -51 0
-1 51 -52 0
-44 -52 -53 0
44 52 -53 0
-44 52 53 0
44 -52 53 0
27 53 -54 0
-27 -53 -54 0
27 -53 54 0
-27 53 54 0
55 50 0
55 -54 0
-50 54 -55 0
-11 20 -56 0
11 -20 -56 0
-11 -20 56 0
11 20 56 0
57 -39 -58 0
-57 39 -58 0
57 39 58 0
-57 -39 58 0
-51 -9 -59 0
51 9 -59 0
-51 9 59 0
51 -9 59 0
-60 -58 0
-60 59 0
58 -59 60 0
-60 21 -61 0
60 -21 -61 0
-60 -21 61 0
60 21 61 0
56 -61 -62 0
-56 61 -62 0
56 61 62 0
-56 -61 62 0
63 55 0
63 -62 0
-55 62 -63 0
-64 -56 0
-64 -15 0
56 15 64 0
-65 62 0
-65 -59 0
-62 59 65 0
66 -64 0
66 65 0
64 -65 -66 0
50 -8 -67 0
-50 8 -67 0
50 8 67 0
-50 -8 67 0
68 66 0
68 67 0
-66 -67 -68 0
-69 63 0
-69 68 0
-63 -68 69 0
70 49 0
70 69 0
-49 -69 -70 0
-71 -8 0
-71 -20 0
8 20 71 0
-72 -6 0
-72 -21 0
6 21 72 0
73 71 0
73 72 0
-71 -72 -73 0
-8 6 -74 0
8 -6 -74 0
-8 -6 74 0
8 6 74 0
75 39 0
75 -17 0
-39 17 -75 0
74 -75 -76 0
-74 75 -76 0
74 75 76 0
-74 -75 76 0
77 73 0
77 -76 0
-73 76 -77 0
-78 33 0
-78 -43 0
-33 43 78 0
-79 8 0
-79 -16 0
-8 16 79 0
78 -79 -80 0
-78 79 -80 0
78 79 80 0
-78 -79 80 0
81 34 0
81 -50 0
-34 50 -81 0
-80 81 -82 0
80 -81 -82 0
-80 -81 82 0
80 81 82 0
83 9 0
83 12 0
-9 -12 -83 0
83 4 -84 0
-83 -4 -84 0
83 -4 84 0
-83 4 84 0
-85 -82 0
-85 -84 0
82 84 85 0
86 77 0
86 85 0
-77 -85 -86 0
70 -86 -87 0
-70 86 -87 0
70 86 87 0
-70 -86 87 0
-88 -30 0
-88 87 0
30 -87 88 0
-89 21 0
-89 10 0
-21 -10 89 0
-90 89 0
-90 -16 0
-89 16 90 0
10 21 -91 0
-10 -21 -91 0
10 -21 91 0
-10 21 91 0
-92 -90 0
-92 91 0
90 -91 92 0
93 -15 0
93 -39 0
15 39 -93 0
-94 93 0
-94 -61 0
-93 61 94 0
-96 -44 0
-96 95 0
44 -95 96 0
97 -52 0
97 -51 0
52 51 -97 0
98 -97 0
98 21 0
97 -21 -98 0
99 96 0
99 -98 0
-96 98 -99 0
-100 94 0
-100 99 0
-94 -99 100 0
-101 -92 0
-101 100 0
92 -100 101 0
43 -55 -102 0
-43 55 -102 0
43 55 102 0
-43 -55 102 0
45 3 -103 0
-45 -3 -103 0
45 -3 103 0
-45 3 103 0
104 -103 0
104 -7 0
103 7 -104 0
105 102 0
105 -104 0
-102 104 -105 0
-106 15 0
-106 4 0
-15 -4 106 0
107 -12 0
107 -106 0
12 106 -107 0
108 -56 0
108 2 0
56 -2 -108 0
107 108 -109 0
-107 -108 -109 0
107 -108 109 0
-107 108 109 0
110 105 0
110 109 0
-105 -109 -110 0
-101 -110 -111 0
101 110 -111 0
-101 110 111 0
101 -110 111 0
88 111 -112 0
-88 -111 -112 0
88 -111 112 0
-88 111 112 0
107 -3 -109 36 0
73 -20 0
29 -63 -39 98 7 0
-30 36 4 -3 0
-85 -56 -86 0
-73 -61 112 -102 0
-12 -47 80 -54 86 -110 0
-4 -48 0
-29 -110 -16 63 -71 -74 0
-85 64 0
106 99 10 -20 0
59 35 0
-83 -55 -61 36 -4 0
-45 -56 0
-66 -21 52 0
10 -41 106 0
-20 -89 -82 104 -83 -50 0
-60 65 88 -50 25 -8 0
109 85 -4 5 31 0
-23 78 -2 -104 0
-49 0
12 -53 0
-46 38 62 -78 0
-56 48 35 -20 -19 0
-104 80 0
76 1 -36 0
13 50 -64 112 37 0
80 -24 0
24 -94 0
-99 -42 108 46 -64 0
20 26 -61 111 92 0
96 -69 15 0
-51 -35 34 86 85 0
24 -10 -12 -38 15 -69 0
-22 2 27 0
-48 40 -112 0
-70 -65 77 -57 -78 0
107 70 95 84 0
-105 -62 -24 58 0
7 112 -79 0
102 110 48 -33 1 0
52 -33 23 61 -35 0
-102 -37 -80 25 0
102 -2 -111 0
-16 -79 -52 -36 0
-91 63 79 -38 -15 0
105 38 -17 -40 0
11 30 -93 -37 0
-106 -2 -64 -7 52 -65 0
108 -75 -88 -62 0
-97 -73 -4 0
15 -19 90 26 0
-65 54 83 107 76 0
77 -9 -76 6 0
34 45 38 -6 -59 0
-99 -111 0
-56 32 111 -1 39 0
-22 56 55 39 -27 91 0
31 30 0
-29 -80 -101 103 -48 0
-48 95 0
-37 -9 0
65 1 57 0
-62 92 0
112 0
